1 100 495
2 2 3 1 1 4 0 2 2 1
4
8 5 7 1
0 40.0 50.0 0.0 0.0 0 240
2 25.0 85.0 10.0 20.0 125 191 54 0 0 0 0 0 1 0 0 0 0
3 22.0 75.0 10.0 30.0 32 97 3 0 0 0 0 0 0 0 1 0 0
4 22.0 85.0 10.0 10.0 101 146 98 0 0 0 0 0 1 0 0 0 0
5 20.0 80.0 10.0 40.0 71 193 77 0 0 0 0 0 1 0 1 1 1
6 20.0 85.0 10.0 20.0 40 113 67 0 1 0 0 1 0 0 0 0 1
7 18.0 75.0 10.0 20.0 55 164 84 0 0 0 0 0 1 0 0 0 0
8 15.0 75.0 10.0 20.0 69 118 87 1 0 0 0 0 0 0 0 1 1
9 15.0 80.0 10.0 10.0 56 155 90 0 1 0 1 0 0 0 0 0 0
10 10.0 35.0 10.0 20.0 51 160 23 0 0 0 0 0 0 1 0 0 1
11 10.0 40.0 10.0 30.0 90 177 83 1 1 0 0 0 0 0 1 0 0
12 8.0 40.0 10.0 40.0 33 152 45 0 0 0 1 0 0 0 0 0 0
13 8.0 45.0 10.0 20.0 49 108 28 0 0 0 0 1 0 0 0 0 0
14 5.0 35.0 10.0 10.0 62 191 77 1 1 0 0 0 0 0 0 0 0
15 5.0 45.0 10.0 10.0 35 117 33 0 0 0 0 0 0 1 0 0 0
16 2.0 40.0 10.0 20.0 39 161 48 0 0 0 1 0 1 0 0 0 0
17 0.0 40.0 10.0 20.0 59 114 42 0 1 0 0 1 0 1 1 0 0
18 0.0 45.0 10.0 20.0 60 189 86 0 1 1 0 0 0 0 0 1 0
19 44.0 5.0 10.0 20.0 79 124 12 0 0 0 0 0 0 0 1 0 0
20 42.0 10.0 10.0 40.0 58 115 64 0 0 0 0 0 0 0 0 1 0
21 42.0 15.0 10.0 10.0 111 162 14 0 0 0 0 0 1 0 0 0 0
22 40.0 5.0 10.0 10.0 52 111 6 0 0 0 1 0 0 1 0 0 0
23 40.0 15.0 10.0 40.0 55 158 96 1 1 0 0 0 1 0 0 0 0
24 38.0 5.0 10.0 30.0 45 164 2 1 0 1 0 0 0 1 0 1 0
25 38.0 15.0 10.0 10.0 128 194 11 1 1 0 0 0 0 0 0 0 0
26 35.0 5.0 10.0 20.0 54 184 77 0 0 0 0 0 0 0 1 0 0
27 95.0 30.0 10.0 30.0 105 154 37 0 0 0 0 1 0 0 0 0 0
28 95.0 35.0 10.0 20.0 57 172 45 0 0 0 0 0 1 0 0 0 1
29 92.0 30.0 10.0 10.0 55 120 66 1 1 0 0 0 0 1 0 0 0
30 90.0 35.0 10.0 10.0 52 112 29 0 1 0 0 0 1 1 0 0 0
31 88.0 30.0 10.0 10.0 52 159 52 0 0 0 1 1 0 0 0 0 0
32 88.0 35.0 10.0 20.0 50 110 51 1 0 0 0 1 0 0 0 1 0
33 87.0 30.0 10.0 10.0 116 175 35 0 0 0 1 0 0 1 0 0 0
34 85.0 25.0 10.0 10.0 51 178 64 0 0 0 0 0 1 0 0 0 1
35 85.0 35.0 10.0 30.0 100 151 27 0 0 0 0 1 0 0 1 0 1
36 67.0 85.0 10.0 20.0 61 185 31 0 1 0 0 0 0 0 0 0 0
37 65.0 85.0 10.0 40.0 43 186 23 1 0 0 0 0 1 0 1 0 1
38 65.0 82.0 10.0 10.0 113 164 48 0 0 1 1 0 0 1 0 0 0
39 62.0 80.0 10.0 30.0 37 148 72 0 0 0 1 0 0 0 0 0 0
40 60.0 80.0 10.0 10.0 36 191 63 0 0 1 0 0 0 0 0 0 1
41 60.0 85.0 10.0 30.0 50 149 47 0 0 1 1 1 0 0 0 0 0
42 58.0 75.0 10.0 20.0 48 165 71 0 0 0 1 1 0 1 0 0 0
43 55.0 80.0 10.0 10.0 33 166 54 0 0 0 0 0 0 1 0 0 0
44 55.0 85.0 10.0 20.0 117 168 22 1 0 0 0 0 0 0 0 0 0
45 55.0 82.0 10.0 10.0 35 148 44 0 1 0 0 1 0 0 0 0 0
46 20.0 82.0 10.0 10.0 37 177 34 0 0 1 0 0 0 1 0 0 1
47 18.0 80.0 10.0 10.0 98 157 25 0 0 0 0 0 1 0 0 0 1
48 2.0 45.0 10.0 10.0 38 109 60 0 0 0 0 0 0 1 0 0 0
49 42.0 5.0 10.0 10.0 120 184 26 0 0 0 0 0 1 0 0 0 0
50 42.0 12.0 10.0 10.0 79 158 6 1 0 0 0 0 0 0 0 1 0
51 72.0 35.0 10.0 30.0 104 157 88 0 0 0 1 0 0 0 1 0 0
52 55.0 20.0 10.0 19.0 69 126 55 0 0 0 0 0 1 0 0 0 0
53 25.0 30.0 10.0 3.0 36 97 48 0 1 1 1 0 0 0 0 0 0
54 20.0 50.0 10.0 5.0 57 154 21 1 0 0 0 1 0 0 0 1 1
55 55.0 60.0 10.0 16.0 127 180 76 1 0 0 0 0 0 0 0 0 0
56 30.0 60.0 10.0 16.0 95 214 42 0 0 1 0 1 0 1 0 0 0
57 50.0 35.0 10.0 19.0 88 201 77 0 0 0 1 0 0 0 0 0 0
58 30.0 25.0 10.0 23.0 82 139 15 0 0 0 1 0 0 0 0 0 0
59 15.0 10.0 10.0 20.0 56 182 66 0 0 0 0 0 1 0 0 0 0
60 10.0 20.0 10.0 19.0 42 125 33 0 0 0 1 0 0 0 1 0 0
61 15.0 60.0 10.0 17.0 137 202 57 0 0 0 0 1 0 0 0 0 0
62 45.0 65.0 10.0 9.0 55 106 21 0 0 0 0 0 1 0 0 0 0
63 65.0 35.0 10.0 3.0 29 158 98 0 0 0 0 0 0 0 0 0 1
64 65.0 20.0 10.0 6.0 39 108 19 0 1 0 0 0 0 0 0 0 1
65 45.0 30.0 10.0 17.0 20 139 5 0 0 0 0 0 1 0 0 0 0
66 35.0 40.0 10.0 16.0 11 140 36 0 0 0 0 0 1 0 0 0 0
67 41.0 37.0 10.0 16.0 92 203 76 0 0 0 0 0 0 1 1 0 0
68 64.0 42.0 10.0 9.0 28 141 48 0 0 0 1 0 0 0 0 0 0
69 40.0 60.0 10.0 21.0 100 217 14 0 0 1 0 0 0 0 0 0 0
70 31.0 52.0 10.0 27.0 9 134 14 0 0 1 0 0 0 0 0 0 0
71 35.0 69.0 10.0 23.0 60 210 65 1 0 0 0 0 0 0 0 0 0
72 65.0 55.0 10.0 14.0 52 107 3 0 0 0 0 0 1 0 0 0 0
73 63.0 65.0 10.0 8.0 27 101 38 0 0 0 0 0 0 1 1 0 0
74 2.0 60.0 10.0 5.0 65 118 13 0 1 0 1 0 0 0 0 1 0
75 20.0 20.0 10.0 8.0 72 193 28 1 0 1 0 0 0 1 1 0 0
76 5.0 5.0 10.0 16.0 60 117 37 0 1 0 1 1 0 0 0 0 0
77 60.0 12.0 10.0 31.0 42 143 46 1 0 0 0 1 0 0 0 0 1
78 23.0 3.0 10.0 7.0 52 180 74 0 0 0 0 0 0 0 1 0 0
79 8.0 56.0 10.0 27.0 46 163 86 0 0 0 0 0 1 0 0 0 0
80 6.0 68.0 10.0 30.0 54 153 76 0 1 1 0 0 1 0 0 1 0
81 47.0 47.0 10.0 13.0 97 222 61 0 0 0 0 0 0 1 0 0 1
82 49.0 58.0 10.0 10.0 80 121 73 0 0 0 0 0 0 1 0 0 1
83 27.0 43.0 10.0 9.0 26 87 7 0 0 1 0 0 0 0 0 0 0
84 37.0 31.0 10.0 14.0 19 87 59 0 0 0 0 0 1 0 0 0 0
85 57.0 29.0 10.0 18.0 62 159 64 1 0 0 0 0 0 0 0 1 1
86 63.0 23.0 10.0 2.0 76 127 92 0 0 0 0 0 1 0 0 0 0
87 21.0 24.0 10.0 28.0 77 126 59 0 0 0 1 0 1 0 0 0 0
88 12.0 24.0 10.0 13.0 68 141 75 1 1 1 0 0 0 0 0 0 0
89 24.0 58.0 10.0 19.0 24 139 7 0 0 0 0 0 1 0 0 0 0
90 67.0 5.0 10.0 25.0 105 177 38 1 0 0 0 0 0 0 0 1 0
91 37.0 47.0 10.0 6.0 74 127 57 1 0 0 0 0 0 0 0 1 0
92 49.0 42.0 10.0 13.0 151 212 75 1 0 0 0 1 0 0 0 0 1
93 53.0 43.0 10.0 14.0 14 155 39 0 1 0 0 0 0 0 1 0 0
94 61.0 52.0 10.0 3.0 69 208 53 0 0 0 1 1 0 0 1 0 0
95 57.0 48.0 10.0 23.0 86 133 84 0 0 0 1 0 0 0 0 0 1
96 56.0 37.0 10.0 6.0 20 84 1 1 0 0 0 0 0 0 0 1 0
97 55.0 54.0 10.0 26.0 121 172 62 0 1 0 0 0 1 0 0 0 0
98 4.0 18.0 10.0 35.0 112 157 59 0 0 0 0 1 0 0 0 0 1
99 26.0 52.0 10.0 9.0 30 91 31 0 0 1 0 0 0 0 0 1 0
100 26.0 35.0 10.0 15.0 37 146 88 0 0 0 1 0 0 0 0 0 0
101 31.0 67.0 10.0 3.0 66 210 21 0 0 1 0 0 1 1 0 1 1